NAME : p43.opt.tour
COMMENT : Optimum solution of p43
TYPE : TOUR
DIMENSION : 43
TOUR_SECTION
1
5
18
20
21
19
17
16
13
14
15
34
35
33
32
9
11
12
10
7
8
6
31
30
29
28
3
2
4
37
38
40
39
42
41
43
27
25
26
22
23
24
36
-1
EOF
